&DOS
    
    prefix ='KDP'
    outdir ='./outdir/'
    fildos ='KDP.dos.dat'
/
