&control
    calculation = 'nscf'
    restart_mode='from_scratch'
    prefix = 'KDP'
    outdir = './outdir'
    pseudo_dir = '/home/johnpaul/JP_QME/Dojo_Pseudo/nc-sr-05_pbe_stringent_upf'
/

&SYSTEM
    a           =  1.05300e+01
    b           =  1.04400e+01
    c           =  1.15736e+01
    degauss     =  1.00000e-02
    ecutrho     =  2.25000e+02
    ecutwfc     =  2.50000e+01
    ibrav       = 8
    nat         = 44
    ntyp        = 4
    occupations = "smearing"
    smearing    = "gaussian"
/

&ELECTRONS
    conv_thr         =  1.0e-02
    electron_maxstep = 26
    mixing_beta      =  7.00000e-01
    startingpot      = "atomic"
    startingwfc      = "atomic+random"
/

K_POINTS {gamma}
 2  2  2  0 0 0

ATOMIC_SPECIES
K1+    39.09830  K.upf
P5+    30.97376  P.upf
O2-    15.99940  O.upf
H1+     1.00794  H.upf

ATOMIC_POSITIONS {angstrom}
K1+     7.897500   2.610000   7.979256
K1+     2.632500   7.830000   7.979256
P5+     2.632500   2.610000   7.896456
P5+     7.897500   7.830000   7.896456
H1+     1.979640   4.828500   7.092606
H1+     8.550360   5.611500   7.092606
O2-     6.486480   0.360180   7.075356
O2-     9.308520   4.859820   7.075356
O2-     1.221480   5.580180   7.075356
O2-     4.043520  10.079820   7.075356
O2-     2.269215   1.398960   7.044306
O2-     2.995785   3.821040   7.044306
O2-     7.534215   6.618960   7.044306
O2-     8.260785   9.041040   7.044306
K1+     0.000000   0.000000   6.254256
K1+     5.265000   5.220000   6.254256
P5+     5.265000   0.000000   6.171456
P5+     0.000000   5.220000   6.171456
H1+     5.917860   2.218500   5.367606  0 0 0
H1+     9.877140   3.001500   5.367606  0 0 0
H1+     0.652860   7.438500   5.367606  0 0 0
H1+     4.612140   8.221500   5.367606  0 0 0
O2-     9.118980   2.249820   5.350356  0 0 0
O2-     6.676020   2.970180   5.350356  0 0 0
O2-     3.853980   7.469820   5.350356  0 0 0
O2-     1.411020   8.190180   5.350356  0 0 0
O2-     4.901715   1.211040   5.319306  0 0 0
O2-     0.363285   4.008960   5.319306  0 0 0
O2-    10.166715   6.431040   5.319306  0 0 0
O2-     5.628285   9.228960   5.319306  0 0 0
K1+     2.632500   2.610000   4.529256  0 0 0
K1+     7.897500   7.830000   4.529256  0 0 0
P5+     7.897500   2.610000   4.446456  0 0 0
P5+     2.632500   7.830000   4.446456  0 0 0
H1+     7.244640   4.828500   3.642606  0 0 0
H1+     3.285360   5.611500   3.642606  0 0 0
O2-     1.221480   0.360180   3.625356  0 0 0
O2-     4.043520   4.859820   3.625356  0 0 0
O2-     6.486480   5.580180   3.625356  0 0 0
O2-     9.308520  10.079820   3.625356  0 0 0
O2-     7.534215   1.398960   3.594306  0 0 0
O2-     8.260785   3.821040   3.594306  0 0 0
O2-     2.269215   6.618960   3.594306  0 0 0
O2-     2.995785   9.041040   3.594306  0 0 0


