&control
    calculation = 'scf'
    restart_mode='from_scratch'
    prefix = 'KDP'
    outdir = './outdir'
    pseudo_dir = '/home/johnpaul/JP_QME/Dojo_Pseudo/nc-sr-05_pbe_stringent_upf'
/

&system
    a           =  1.05300e+01
    b           =  1.04400e+01
    c           =  6.90000e+00
    degauss     =  1.00000e-02
    ecutrho     =  2.25000e+02
    ecutwfc     =  2.50000e+01
    ibrav       = 8
    nat         = 64
    ntyp        = 4
    occupations = "smearing"
    smearing    = "gaussian"
/
&electrons
    conv_thr         =  1.00000e-06
    electron_maxstep = 200
    mixing_beta      =  7.00000e-01
    startingpot      = "atomic"
    startingwfc      = "atomic+random"

/
ATOMIC_SPECIES
K1+    39.09830  K.upf
P5+    30.97376  P.upf
O2-    15.99940  O.upf
H1+     1.00794  H.upf

ATOMIC_POSITIONS {angstrom}
K1+     0.000000   0.000000   3.532800
K1+     2.632500   2.610000   1.807800
K1+     0.000000   5.220000   0.082800
K1+     5.265000   0.000000   0.082800
K1+     5.265000   5.220000   3.532800
K1+     2.632500   7.830000   5.257800
K1+     7.897500   2.610000   5.257800
K1+     7.897500   7.830000   1.807800
P5+     0.000000   0.000000   0.000000
P5+     2.632500   2.610000   5.175000
P5+     0.000000   5.220000   3.450000
P5+     5.265000   0.000000   3.450000
P5+     5.265000   5.220000   0.000000
P5+     2.632500   7.830000   1.725000
P5+     7.897500   2.610000   1.725000
P5+     7.897500   7.830000   5.175000
O2-     1.221480   0.360180   0.903900
O2-     9.308520  10.079820   0.903900
O2-     1.411020   2.970180   6.078900
O2-     3.853980   2.249820   6.078900
O2-     1.221480   5.580180   4.353900
O2-     6.486480   0.360180   4.353900
O2-     6.486480   5.580180   0.903900
O2-     9.308520   4.859820   4.353900
O2-     4.043520  10.079820   4.353900
O2-     4.043520   4.859820   0.903900
O2-     1.411020   8.190180   2.628900
O2-     6.676020   2.970180   2.628900
O2-     6.676020   8.190180   6.078900
O2-     3.853980   7.469820   2.628900
O2-     9.118980   2.249820   2.628900
O2-     9.118980   7.469820   6.078900
O2-    10.166715   1.211040   6.047850
O2-     0.363285   9.228960   6.047850
O2-     2.995785   3.821040   4.322850
O2-     2.269215   1.398960   4.322850
O2-    10.166715   6.431040   2.597850
O2-     4.901715   1.211040   2.597850
O2-     4.901715   6.431040   6.047850
O2-     0.363285   4.008960   2.597850
O2-     5.628285   9.228960   2.597850
O2-     5.628285   4.008960   6.047850
O2-     2.995785   9.041040   0.872850
O2-     8.260785   3.821040   0.872850
O2-     8.260785   9.041040   4.322850
O2-     2.269215   6.618960   0.872850
O2-     7.534215   1.398960   0.872850
O2-     7.534215   6.618960   4.322850
H1+     1.979640  10.048500   0.921150
H1+     8.550360   0.391500   0.921150
H1+     0.652860   2.218500   6.096150
H1+     4.612140   3.001500   6.096150
H1+     1.979640   4.828500   4.371150
H1+     7.244640  10.048500   4.371150
H1+     7.244640   4.828500   0.921150
H1+     8.550360   5.611500   4.371150
H1+     3.285360   0.391500   4.371150
H1+     3.285360   5.611500   0.921150
H1+     0.652860   7.438500   2.646150
H1+     5.917860   2.218500   2.646150
H1+     5.917860   7.438500   6.096150
H1+     4.612140   8.221500   2.646150
H1+     9.877140   3.001500   2.646150
H1+     9.877140   8.221500   6.096150

K_POINTS (automatic)
  1 2 2 0 0 0