&CONTROL
    calculation = 'bands'
    restart_mode='from_scratch'
    prefix = 'Urea'
    outdir = './outdir'
   pseudo_dir = '/home/johnpaul/JP_QME/SSSP_Precision_Peseudos'
/

&SYSTEM
    a           =  1.11300e+01
    c           =  4.68400e+00
    ecutrho     =  2.25000e+02
    ecutwfc     =  2.50000e+01
    ibrav       = 6
    nat         = 64
    ntyp        = 4
    nbnd       = 192
/

&ELECTRONS
    conv_thr         =  1.00000e-06
/

ATOMIC_SPECIES
C      12.01070  C.pbe-n-kjpaw_psl.1.0.0.UPF
H       1.00794  H_ONCV_PBE-1.0.oncvpsp.upf
N      14.00674  N.oncvpsp.upf
O      15.99940  O.pbe-n-kjpaw_psl.0.1.UPF

ATOMIC_POSITIONS {angstrom}
C       0.000000   2.782500   1.526984
C       0.000000   8.347500   1.526984
C       2.782500   0.000000   3.157016
C       8.347500   0.000000   3.157016
C       2.782500   5.565000   3.157016
C       5.565000   2.782500   1.526984
C       5.565000   8.347500   1.526984
C       8.347500   5.565000   3.157016
H       1.432988   4.215488   1.324167
H       9.697013   6.914513   1.324167
H       4.215488   9.697013   3.359833
H       6.914513   1.432988   3.359833
H       1.349513   6.997988   3.359833
H       9.697013   1.349513   1.324167
H       6.997988   4.215488   1.324167
H       1.432988   9.780488   1.324167
H       9.780488   9.697013   3.359833
H       1.349513   1.432988   3.359833
H       4.215488   4.132013   3.359833
H       4.132013   1.349513   1.324167
H       4.132013   6.914513   1.324167
H       6.914513   6.997988   3.359833
H       6.997988   9.780488   1.324167
H       9.780488   4.132013   3.359833
H       0.801917   3.584417   4.506008
H      10.328084   7.545584   4.506008
H       3.584417  10.328084   0.177992
H       7.545584   0.801917   0.177992
H       1.980584   6.366916   0.177992
H      10.328084   1.980584   4.506008
H       6.366916   3.584417   4.506008
H       0.801917   9.149417   4.506008
H       9.149417  10.328084   0.177992
H       1.980584   0.801917   0.177992
H       3.584417   4.763084   0.177992
H       4.763084   1.980584   4.506008
H       4.763084   7.545584   4.506008
H       7.545584   6.366916   0.177992
H       6.366916   9.149417   4.506008
H       9.149417   4.763084   0.177992
N       0.811934   3.594434   0.827194
N      10.318067   7.535567   0.827194
N       3.594434  10.318067   3.856806
N       7.535567   0.811934   3.856806
N       1.970566   6.376934   3.856806
N      10.318067   1.970566   0.827194
N       6.376934   3.594434   0.827194
N       0.811934   9.159434   0.827194
N       9.159434  10.318067   3.856806
N       1.970566   0.811934   3.856806
N       3.594434   4.753067   3.856806
N       4.753067   1.970566   0.827194
N       4.753067   7.535567   0.827194
N       7.535567   6.376934   3.856806
N       6.376934   9.159434   0.827194
N       9.159434   4.753067   3.856806
O       0.000000   2.782500   2.788385
O       0.000000   8.347500   2.788385
O       2.782500   0.000000   1.895615
O       8.347500   0.000000   1.895615
O       2.782500   5.565000   1.895615
O       5.565000   2.782500   2.788385
O       5.565000   8.347500   2.788385
O       8.347500   5.565000   1.895615

K_POINTS {crystal_b}
11
  0.5000 0.5000 0.5000 20 !L
  -0.500 -0.500 -0.500 30 !Gamma
  0.0000 0.0000 0.0000 10 !X
  0.5000 0.5000 0.0000 30 !U
  -0.500 -0.500 -0.000 20 !Gamma
  0.0000 0.5000 0.5000 20
  -0.000 -0.500 -0.500 20 !L
  0.0000 0.5000 0.0000 30 !Gamma
  -0.000 -0.500 -0.000 10 !X
  0.0000 0.0000 0.5000 30 !U
  -0.000 -0.000 -0.500 20 !Gamma
  