&CONTROL
    calculation = 'bands'
    restart_mode='from_scratch'
    prefix = 'TaAs'
    outdir = './outdir1'
    pseudo_dir = '/home/johnpaul/JP_QME/Dojo_Pseudo/nc-sr-05_pbe_stringent_upf'
/
&SYSTEM
    a           =  3.44363e+00
    c           =  1.17359e+01
    degauss     =  1.00000e-02
    ecutrho     =  2.25000e+02
    ecutwfc     =  2.50000e+01
    ibrav       = 6
    nat         = 8
    !nspin       = 2
    ntyp        = 2
    nbnd       = 100
    !nosym     = .true.
    occupations = "smearing"
    smearing    = "gaussian"
/

&ELECTRONS
    conv_thr         =  1.00000e-06
    electron_maxstep = 200
    mixing_beta      =  4.00000e-01
    startingpot      = "atomic"
    startingwfc      = "atomic+random"
/

K_POINTS {crystal_b}
15
 0.0000000000	0.0000000000	0.0000000000  20 
 0.5000000000	0.5000000000	0.5000000000  20
 -0.500000000	-0.500000000	-0.500000000  20
 0.5000000000	0.5000000000	0.0000000000  20
 -0.500000000	-0.500000000	-0.000000000  20
 0.0000000000	0.5000000000	0.5000000000  20
 -0.000000000	-0.500000000	-0.500000000  20
 0.5000000000	0.0000000000	0.5000000000  20
 -0.500000000	-0.000000000	-0.500000000  20
 0.5000000000	0.0000000000	0.0000000000  20
 -0.500000000	-0.000000000	-0.000000000  20
 0.0000000000	0.5000000000	0.0000000000  20
 -0.000000000	-0.500000000	-0.000000000  20
 0.0000000000	0.0000000000	0.5000000000  20
 -0.000000000	-0.000000000	-0.500000000  20


ATOMIC_SPECIES
Ta  180.94790  Ta.upf
As   74.92160  As.upf

ATOMIC_POSITIONS {angstrom}
Ta      0.000000   0.000000   8.801529
Ta      0.000000   1.721813  11.735499
Ta      1.721813   1.721813   2.933587
Ta      1.721813   0.000000   5.867558
As      0.000000   0.000000   3.903732
As      0.000000   1.721813   6.837702
As      1.721813   1.721813   9.771673
As      1.721813   0.000000   0.969761



