&input fildyn='TaAs.dyn', asr='zero-dim' /