&DOS
    
    prefix ='TaAs'
    outdir ='./outdir/'
    fildos ='TaAs.dos1.dat'
    degauss =  1.00000e-02
    deltae  =  1.00000e-02
    emax    =  5.00000e+01
    emin    = -5.00000e+01
    ngauss  = 0
/
