&CONTROL
    calculation = 'vc-relax'
    restart_mode='from_scratch'
    prefix = 'TaAs'
    outdir = './outdir'
    pseudo_dir = '/home/johnpaul/JP_QME/Dojo_Pseudo/nc-sr-05_pbe_stringent_upf'
/

&SYSTEM
    a                         =  3.44363e+00
    c                         =  1.17359e+01
    degauss                   =  1.00000e-02
    ecutrho                   =  2.25000e+02
    ecutwfc                   =  2.50000e+01
    ibrav                     = 6
    nat                       = 8
    nspin                     = 2
    ntyp                      = 2
    occupations               = "smearing"
    smearing                  = "gaussian"
    starting_magnetization(1) =  2.00000e-01
    starting_magnetization(2) =  0.00000e+00
/

&ELECTRONS
     conv_thr         =  1.00000e-06
     electron_maxstep = 200
     mixing_beta      =  4.00000e-01
     startingpot      = "atomic"
     startingwfc      = "atomic+random"
/

&IONS

/

&CELL
     cell_dofree='ibrav'
     cell_factor = 6
/

K_POINTS {automatic}
 3  3  1  0 0 0

ATOMIC_SPECIES
Ta  180.94790  Ta.upf
As   74.92160  As.upf

ATOMIC_POSITIONS {angstrom}
Ta      0.000000   0.000000   8.801529
Ta      0.000000   1.721813  11.735499
Ta      1.721813   1.721813   2.933587
Ta      1.721813   0.000000   5.867558
As      0.000000   0.000000   3.903732
As      0.000000   1.721813   6.837702
As      1.721813   1.721813   9.771673
As      1.721813   0.000000   0.969761
