&CONTROL
    calculation = "nscf"
    max_seconds =  8.64000e+04
    pseudo_dir  = "C:\Users\John Paul J\.burai\.pseudopot"
/

&SYSTEM
    a           =  3.21696e+01
    b           =  3.47232e+01
    c           =  7.46611e+00
    cosac       = -6.48386e-01
    degauss     =  1.00000e-02
    ecutrho     =  2.25000e+02
    ecutwfc     =  2.50000e+01
    ibrav       = -12
    nat         = 108
    nbnd        = 432
    ntyp        = 4
    occupations = "smearing"
    smearing    = "gaussian"
/

&ELECTRONS
    conv_thr         =  1.00000e-06
    electron_maxstep = 200
    mixing_beta      =  7.00000e-01
    startingpot      = "atomic"
    startingwfc      = "atomic+random"
/

&DOS
    degauss =  1.00000e-02
    deltae  =  1.00000e-02
    emax    =  5.00000e+01
    emin    = -5.00000e+01
    ngauss  = 0
/

&PROJWFC
    degauss =  1.00000e-02
    deltae  =  1.00000e-02
    emax    =  5.00000e+01
    emin    = -5.00000e+01
    ngauss  = 0
/

K_POINTS {automatic}
 1  1  4  0 0 0

ATOMIC_SPECIES
O      15.99940  O.pbe-rrkjus.UPF
N      14.00674  N.pbe-rrkjus.UPF
C      12.01070  C.pbe-rrkjus.UPF
H       1.00794  H.pbe-rrkjus.UPF

ATOMIC_POSITIONS {angstrom}
O      14.390660   7.531324   4.026441
O      14.390660  19.105724   4.026441
O      14.390660  30.680125   4.026441
O      25.113860   7.531324   4.026441
O      25.113860  19.105724   4.026441
O      25.113860  30.680125   4.026441
O       3.667461   7.531324   4.026441
O       3.667461  19.105724   4.026441
O       3.667461  30.680125   4.026441
O      15.004608   5.494113   4.360663
O      15.004608  17.068514   4.360663
O      15.004608  28.642915   4.360663
O      25.727807   5.494113   4.360663
O      25.727807  17.068514   4.360663
O      25.727807  28.642915   4.360663
O       4.281408   5.494113   4.360663
O       4.281408  17.068514   4.360663
O       4.281408  28.642915   4.360663
N      14.156915   6.321567   4.015073
N      14.156915  17.895968   4.015073
N      14.156915  29.470369   4.015073
N      24.880114   6.321567   4.015073
N      24.880114  17.895968   4.015073
N      24.880114  29.470369   4.015073
N       3.433716   6.321567   4.015073
N       3.433716  17.895968   4.015073
N       3.433716  29.470369   4.015073
C      10.383173   4.940903   2.786742
C      10.383173  16.515304   2.786742
C      10.383173  28.089705   2.786742
C      21.106373   4.940903   2.786742
C      21.106373  16.515304   2.786742
C      21.106373  28.089705   2.786742
C      -0.340026   4.940903   2.786742
C      -0.340026  16.515304   2.786742
C      -0.340026  28.089705   2.786742
C      10.644741   6.328651   2.811751
C      10.644741  17.903051   2.811751
C      10.644741  29.477452   2.811751
C      21.367940   6.328651   2.811751
C      21.367940  17.903051   2.811751
C      21.367940  29.477452   2.811751
C      -0.078459   6.328651   2.811751
C      -0.078459  17.903051   2.811751
C      -0.078459  29.477452   2.811751
C      11.895125   6.769635   3.213630
C      11.895125  18.344036   3.213630
C      11.895125  29.918437   3.213630
C      22.618325   6.769635   3.213630
C      22.618325  18.344036   3.213630
C      22.618325  29.918437   3.213630
C       1.171926   6.769635   3.213630
C       1.171926  18.344036   3.213630
C       1.171926  29.918437   3.213630
H      12.087684   7.700460   3.228749
H      12.087684  19.274861   3.228749
H      12.087684  30.849262   3.228749
H      22.810883   7.700460   3.228749
H      22.810883  19.274861   3.228749
H      22.810883  30.849262   3.228749
H       1.364484   7.700460   3.228749
H       1.364484  19.274861   3.228749
H       1.364484  30.849262   3.228749
C      12.871975   5.848325   3.596166
C      12.871975  17.422725   3.596166
C      12.871975  28.997126   3.596166
C      23.595174   5.848325   3.596166
C      23.595174  17.422725   3.596166
C      23.595174  28.997126   3.596166
C       2.148776   5.848325   3.596166
C       2.148776  17.422725   3.596166
C       2.148776  28.997126   3.596166
C      12.635393   4.477904   3.563198
C      12.635393  16.052305   3.563198
C      12.635393  27.626705   3.563198
C      23.358592   4.477904   3.563198
C      23.358592  16.052305   3.563198
C      23.358592  27.626705   3.563198
C       1.912194   4.477904   3.563198
C       1.912194  16.052305   3.563198
C       1.912194  27.626705   3.563198
H      13.315686   3.863547   3.810226
H      13.315686  15.437947   3.810226
H      13.315686  27.012348   3.810226
H      24.038886   3.863547   3.810226
H      24.038886  15.437947   3.810226
H      24.038886  27.012348   3.810226
H       2.592487   3.863547   3.810226
H       2.592487  15.437947   3.810226
H       2.592487  27.012348   3.810226
C      11.394412   4.029975   3.164179
C      11.394412  15.604375   3.164179
C      11.394412  27.178776   3.164179
C      22.117611   4.029975   3.164179
C      22.117611  15.604375   3.164179
C      22.117611  27.178776   3.164179
C       0.671212   4.029975   3.164179
C       0.671212  15.604375   3.164179
C       0.671212  27.178776   3.164179
H      11.217635   3.097310   3.142352
H      11.217635  14.671710   3.142352
H      11.217635  26.246111   3.142352
H      21.940834   3.097310   3.142352
H      21.940834  14.671710   3.142352
H      21.940834  26.246111   3.142352
H       0.494436   3.097310   3.142352
H       0.494436  14.671710   3.142352
H       0.494436  26.246111   3.142352


