&inputpp
    prefix = 'MNA',
    outdir = './outdir',
    filplot = 'LUMO_MNA.dat',
    plot_num = 7,
    kpoint =1,
    kband = 16,
    lsign=.true. 
/

&plot
    nfile =1,
    filepp(1) = 'LUMO_MNA.dat',
    weight(1)=1,
    output_format=6,
    fileout='lumo_MNA.cub',
   iflag=3 
/