&CONTROL
    calculation = 'scf'
    restart_mode='from_scratch'
    prefix = 'MNA'
    outdir = './outdir'
    pseudo_dir = '/home/johnpaul/JP_QME/Dojo_Pseudo/nc-sr-05_pbe_stringent_upf'
/
&SYSTEM
    a           =  1.07232e+01
    b           =  1.15744e+01
    c           =  7.46611e+00
    cosac       = -6.48386e-01
    !degauss     =  1.00000e-02
    ecutrho     =  2.25000e+02
    ecutwfc     =  2.50000e+01
    ibrav       = -12
    nat         = 76
    ntyp        = 4
    !occupations = "smearing"
    !smearing    = "gaussian"
/

&ELECTRONS
    conv_thr         =  1.00000e-06
    !electron_maxstep = 200
    !mixing_beta      =  7.00000e-01
    !startingpot      = "atomic"
    !startingwfc      = "atomic+random"
/

&IONS

/

K_POINTS gamma


ATOMIC_SPECIES
O      15.99940  O.upf
N      14.00674  N.upf
H       1.00794  H.upf
C      12.01070  C.upf

ATOMIC_POSITIONS {angstrom}
O       6.173744   4.043078   3.996095
O       8.594214   7.531338   1.154084
O       0.812137   9.830286   3.996095
O       3.232606   1.744130   1.154084
O       6.787702   6.080291   4.330316
O       9.208172   5.494125   1.488304
O       1.426095   0.293083   4.330316
O       3.846564  11.281333   1.488304
N       0.964022   7.108793   2.347160
N      -1.456448   4.465623   5.189171
N       6.325629   1.321585   2.347160
N       3.905160  10.252831   5.189171
H       0.820923   7.977088   2.318513
H      -1.599546   3.597328   5.160524
H       6.182531   2.189880   2.318513
H       3.762061   9.384536   5.160524
H       0.327797   6.549962   2.109341
H      -2.092673   5.024454   4.951352
H       5.689404   0.762754   2.109341
H       3.268935  10.811662   4.951352
N       5.940009   5.252838   3.984727
N       8.360478   6.321578   1.142716
N       0.578402  11.040046   3.984727
N       2.998871   0.534370   1.142716
C       2.166265   6.633529   2.756410
C      -0.254204   4.940887   5.598421
C       7.527873   0.846321   2.756410
C       5.107403  10.728095   5.598421
C       2.427844   5.245778   2.781420
C       0.007374   6.328638   5.623431
C       7.789451  11.032986   2.781420
C       5.368982   0.541430   5.623431
C       3.678201   4.804772   3.183280
C       6.098670   6.769644   0.341269
C      -1.683406  10.591980   3.183280
C       0.737063   0.982436   0.341269
H       3.870781   3.873957   3.198399
H       6.291250   7.700459   0.356388
H      -1.490826   9.661165   3.198399
H       0.929643   1.913251   0.356388
C       4.655062   5.726095   3.565815
C       7.075531   5.848321   0.723803
C      -0.706545  11.513303   3.565815
C       1.713924   0.061113   0.723803
C       4.418491   7.096506   3.532847
C       6.838960   4.477910   0.690836
C      -0.943117   1.309298   3.532847
C       1.477352  10.265118   0.690836
H       5.098774   7.710876   3.779875
H       7.519243   3.863540   0.937864
H      -0.262834   1.923668   3.779875
H       2.157635   9.650748   0.937864
C       3.177508   7.544436   3.133829
C       5.597977   4.029980   0.291818
C      -2.184099   1.757228   3.133829
C       0.236370   9.817188   0.291818
H       3.000720   8.477102   3.112002
H       5.421190   3.097314   0.269991
H      -2.360887   2.689894   3.112002
H       0.059582   8.884522   0.269991
C       1.349830   4.278136   2.371602
C      -1.070640   7.296280   5.213613
C       6.711437  10.065344   2.371602
C       4.290968   1.509072   5.213613
H       1.665938   3.360053   2.506085
H      -0.754532   8.214363   5.348097
H       7.027545   9.147261   2.506085
H       4.607076   2.427155   5.348097
H       1.132132   4.413325   1.425553
H      -1.288337   7.161091   4.267564
H       6.493740  10.200533   1.425553
H       4.073270   1.373883   4.267564
H       0.549608   4.431844   2.915335
H       2.970077   7.142572   0.073324
H       5.911215  10.219052   2.915335
H       8.331685   1.355364   0.073324



